c 3 - XORSAT
p cnf 20 80
-3 -13 -9 0
-3 13 9 0
3 -13 9 0
3 13 -9 0
1 4 14 0
-1 -4 14 0
-1 4 -14 0
1 -4 -14 0
10 16 20 0
-10 -16 20 0
-10 16 -20 0
10 -16 -20 0
-2 -11 -15 0
-2 11 15 0
2 -11 15 0
2 11 -15 0
5 17 18 0
-5 -17 18 0
-5 17 -18 0
5 -17 -18 0
1 2 6 0
-1 -2 6 0
-1 2 -6 0
1 -2 -6 0
-16 -20 -18 0
-16 20 18 0
16 -20 18 0
16 20 -18 0
15 19 8 0
-15 -19 8 0
-15 19 -8 0
15 -19 -8 0
-8 -9 -10 0
-8 9 10 0
8 -9 10 0
8 9 -10 0
-3 -9 -11 0
-3 9 11 0
3 -9 11 0
3 9 -11 0
-3 -8 -14 0
-3 8 14 0
3 -8 14 0
3 8 -14 0
-4 -12 -14 0
-4 12 14 0
4 -12 14 0
4 12 -14 0
-6 -7 -10 0
-6 7 10 0
6 -7 10 0
6 7 -10 0
-2 -6 -12 0
-2 6 12 0
2 -6 12 0
2 6 -12 0
-1 -7 -17 0
-1 7 17 0
1 -7 17 0
1 7 -17 0
5 7 19 0
-5 -7 19 0
-5 7 -19 0
5 -7 -19 0
4 11 12 0
-4 -11 12 0
-4 11 -12 0
4 -11 -12 0
5 15 19 0
-5 -15 19 0
-5 15 -19 0
5 -15 -19 0
13 17 20 0
-13 -17 20 0
-13 17 -20 0
13 -17 -20 0
-13 -16 -18 0
-13 16 18 0
13 -16 18 0
13 16 -18 0
